NAME: berlin52-20-4
TYPE: TSP
COMMENT: min_cost = 5377.50
DIMENSION: 20
EDGE_WEIGHT_TYPE: EUC_2D
NODE_COORD_SECTION
1 945 685
2 975 580
3 25 185
4 595 360
5 1340 725
6 830 485
7 575 665
8 1605 620
9 1530 5
10 560 365
11 1215 245
12 660 180
13 685 610
14 1150 1160
15 565 575
16 25 230
17 1320 315
18 1740 245
19 1250 400
20 1465 200
EOF
